\ENCODING=ISO-8859-1
\Problem name: 

Maximize
 obj1: _eta#10
Subject To
 Cardinality: y_0#0 + y_1#1 + y_2#2 + y_3#3 + y_4#4 + y_5#5 + y_6#6 + y_7#7
              + y_8#8 + y_9#9  = 9
Bounds
 0 <= y_0#0 <= 1
 0 <= y_1#1 <= 1
 0 <= y_2#2 <= 1
 0 <= y_3#3 <= 1
 0 <= y_4#4 <= 1
 0 <= y_5#5 <= 1
 0 <= y_6#6 <= 1
 0 <= y_7#7 <= 1
 0 <= y_8#8 <= 1
 0 <= y_9#9 <= 1
 0 <= _eta#10 <= 10
Binaries
 y_0#0  y_1#1  y_2#2  y_3#3  y_4#4  y_5#5  y_6#6  y_7#7  y_8#8  y_9#9 
End
